p tw 61 1062
0 1
0 2
0 3
0 4
0 5
0 6
0 7
0 8
0 24
0 25
0 26
0 27
0 28
0 29
0 30
0 19
0 45
0 50
0 51
0 52
0 9
0 18
0 36
0 37
0 41
0 57
0 16
0 22
0 34
0 54
0 56
0 58
0 23
0 49
0 53
0 60
0 12
0 48
0 33
0 39
0 47
0 10
0 13
0 17
0 20
0 42
1 2
1 3
1 4
1 5
1 6
1 7
1 8
1 18
1 21
1 23
1 24
1 25
1 48
1 49
1 44
1 52
1 55
1 58
1 59
1 13
1 14
1 15
1 22
1 41
1 47
1 50
1 53
1 9
1 10
1 35
1 45
2 3
2 4
2 5
2 6
2 7
2 8
2 24
2 25
2 26
2 27
2 28
2 29
2 30
2 44
2 52
2 55
2 58
2 59
2 19
2 21
2 32
2 35
2 36
2 45
2 12
2 13
2 22
2 31
2 39
2 40
2 48
2 15
2 51
2 17
2 42
2 46
2 60
2 16
2 37
2 49
2 50
3 4
3 5
3 6
3 7
3 8
3 9
3 14
3 36
3 37
3 38
3 39
3 40
3 23
3 25
3 42
3 44
3 45
3 46
3 47
3 19
3 24
3 50
3 51
3 52
3 30
3 41
3 54
3 56
4 5
4 6
4 7
4 8
4 19
4 24
4 45
4 50
4 51
4 52
4 35
4 40
4 44
4 48
4 59
4 11
4 20
4 22
4 26
4 47
4 13
4 17
4 27
4 30
4 34
4 37
4 38
4 41
4 57
5 6
5 7
5 8
5 22
5 23
5 31
5 32
5 33
5 34
5 35
5 13
5 14
5 15
5 19
5 21
5 26
5 30
5 29
5 39
5 47
5 52
5 55
5 37
5 49
5 53
5 54
5 56
5 41
5 17
5 27
5 48
5 59
5 9
5 36
5 46
6 7
6 8
6 18
6 21
6 23
6 24
6 25
6 48
6 49
6 9
6 11
6 29
6 34
6 36
6 41
6 14
6 22
6 26
6 58
6 30
6 38
6 39
6 44
6 52
6 35
6 46
6 51
6 56
6 53
6 57
6 60
6 33
6 47
6 10
6 13
6 17
6 20
6 42
7 8
7 10
7 16
7 20
7 34
7 38
7 45
7 51
7 53
7 14
7 18
7 22
7 26
7 58
7 19
7 21
7 32
7 35
7 36
7 24
7 41
7 55
7 15
7 40
7 13
7 30
7 54
7 57
7 9
8 15
8 24
8 32
8 40
8 51
8 58
8 36
8 42
8 45
8 46
8 60
8 9
8 12
8 18
8 22
8 27
8 48
8 50
8 29
8 33
8 35
8 38
9 10
9 11
9 12
9 13
9 14
9 15
9 16
9 17
9 36
9 37
9 38
9 39
9 40
9 23
9 25
9 42
9 44
9 45
9 46
9 47
9 18
9 29
9 34
9 41
9 19
9 57
9 21
9 24
9 55
9 59
9 22
9 27
9 48
9 50
9 32
9 33
9 35
9 51
9 54
9 56
9 58
10 11
10 12
10 13
10 14
10 15
10 16
10 17
10 18
10 19
10 20
10 21
10 22
10 23
10 34
10 38
10 45
10 51
10 53
10 24
10 25
10 29
10 55
10 59
10 36
10 41
10 35
10 58
10 42
11 12
11 13
11 14
11 15
11 16
11 17
11 18
11 19
11 20
11 21
11 22
11 23
11 36
11 41
11 42
11 43
11 44
11 29
11 34
11 35
11 46
11 51
11 56
11 58
11 26
11 47
11 48
11 50
11 52
12 13
12 14
12 15
12 16
12 17
12 22
12 31
12 32
12 39
12 40
12 21
12 24
12 25
12 29
12 55
12 59
12 26
12 37
12 48
12 49
12 50
12 18
12 27
12 20
12 30
12 45
12 53
13 14
13 15
13 16
13 17
13 20
13 22
13 38
13 45
13 50
13 54
13 19
13 21
13 26
13 30
13 31
13 32
13 39
13 40
13 41
13 47
13 53
13 28
13 52
13 55
13 57
13 27
13 34
13 48
13 59
13 23
13 25
13 42
14 15
14 16
14 17
14 36
14 37
14 38
14 39
14 40
14 18
14 22
14 26
14 34
14 58
14 19
14 21
14 30
14 41
14 47
14 50
14 53
15 16
15 17
15 20
15 22
15 38
15 45
15 50
15 54
15 28
15 31
15 36
15 40
15 57
15 58
15 59
15 19
15 21
15 26
15 30
15 41
15 47
15 53
15 24
15 32
15 51
15 42
15 46
15 60
16 17
16 20
16 34
16 38
16 45
16 51
16 53
16 22
16 50
16 54
16 24
16 36
16 56
16 58
16 21
16 27
16 28
16 33
16 26
16 37
16 48
16 49
17 23
17 24
17 28
17 40
17 55
17 56
17 57
17 19
17 39
17 52
17 46
17 47
17 48
17 50
17 54
17 60
17 27
17 30
17 34
17 59
17 20
17 25
17 42
18 19
18 20
18 21
18 22
18 23
18 36
18 41
18 42
18 43
18 44
18 24
18 25
18 48
18 49
18 29
18 34
18 26
18 58
18 37
18 57
18 27
18 50
19 20
19 21
19 22
19 23
19 24
19 45
19 50
19 51
19 52
19 26
19 30
19 32
19 35
19 36
19 25
19 37
19 41
19 57
19 40
19 44
19 48
19 59
19 28
19 39
19 55
19 38
19 54
19 46
19 56
20 21
20 22
20 23
20 36
20 41
20 42
20 43
20 44
20 34
20 38
20 45
20 51
20 53
20 50
20 54
20 27
20 28
20 33
20 26
20 47
20 48
20 52
20 30
20 40
20 37
20 57
20 25
21 22
21 23
21 24
21 25
21 48
21 49
21 26
21 30
21 32
21 35
21 36
21 45
21 29
21 55
21 59
21 33
21 34
21 39
21 43
21 44
21 54
21 27
21 28
21 50
21 51
21 40
21 53
22 23
22 31
22 32
22 33
22 34
22 35
22 38
22 45
22 50
22 54
22 26
22 58
22 39
22 40
22 41
22 47
22 53
22 24
22 36
22 56
22 37
22 49
22 48
22 52
22 27
22 51
22 57
23 31
23 32
23 33
23 34
23 35
23 25
23 42
23 44
23 45
23 46
23 47
23 24
23 48
23 49
23 29
23 36
23 41
23 28
23 40
23 55
23 56
23 57
23 51
23 58
23 53
23 60
24 25
24 26
24 27
24 28
24 29
24 30
24 48
24 49
24 45
24 50
24 51
24 52
24 40
24 55
24 56
24 57
24 44
24 58
24 59
24 34
24 36
24 54
24 38
24 41
24 33
24 39
24 43
24 32
24 42
24 46
24 60
25 26
25 27
25 28
25 29
25 30
25 42
25 44
25 45
25 46
25 47
25 48
25 49
25 36
25 37
25 41
25 57
25 55
25 59
26 27
26 28
26 29
26 30
26 34
26 58
26 37
26 48
26 49
26 50
26 33
26 39
26 41
26 47
26 53
26 52
27 28
27 29
27 30
27 33
27 50
27 51
27 48
27 34
27 59
28 29
28 30
28 40
28 55
28 56
28 57
28 31
28 36
28 58
28 59
28 33
28 50
28 51
28 39
28 52
29 30
29 34
29 36
29 41
29 55
29 59
29 39
29 47
29 52
29 32
29 33
29 35
29 38
29 46
29 51
30 38
30 39
30 44
30 52
30 40
30 45
30 53
30 41
30 54
30 57
30 34
30 48
30 59
31 32
31 33
31 34
31 35
31 36
31 40
31 57
31 58
31 59
31 39
31 37
31 49
31 53
31 54
31 56
32 33
32 34
32 35
32 36
32 45
32 39
32 40
32 51
32 58
32 38
32 46
33 34
33 35
33 39
33 43
33 44
33 45
33 54
33 50
33 51
33 41
33 47
33 53
33 38
33 46
34 35
34 38
34 45
34 51
34 53
34 36
34 41
34 58
34 54
34 56
34 55
34 39
34 43
34 44
34 47
34 52
34 48
34 59
35 36
35 45
35 40
35 44
35 48
35 59
35 46
35 51
35 56
35 58
35 38
35 41
36 37
36 38
36 39
36 40
36 41
36 42
36 43
36 44
36 57
36 58
36 59
36 45
36 54
36 56
36 51
36 55
36 46
36 60
37 38
37 39
37 40
37 41
37 57
37 49
37 53
37 54
37 56
37 48
37 50
37 51
38 39
38 40
38 45
38 51
38 53
38 50
38 54
38 41
38 55
38 44
38 52
38 57
38 46
39 40
39 43
39 44
39 45
39 54
39 47
39 52
39 55
39 41
39 53
40 55
40 56
40 57
40 58
40 59
40 44
40 48
40 51
40 45
40 53
41 42
41 43
41 44
41 57
41 47
41 50
41 53
41 51
41 55
41 54
41 46
41 56
41 45
41 58
42 43
42 44
42 45
42 46
42 47
42 60
43 44
43 45
43 54
44 45
44 46
44 47
44 52
44 55
44 58
44 59
44 54
44 48
45 46
45 47
45 50
45 51
45 52
45 53
45 54
45 60
45 58
46 47
46 51
46 56
46 58
46 60
46 48
46 50
46 54
46 55
47 50
47 53
47 52
47 55
47 48
47 54
47 60
48 49
48 59
48 50
48 52
48 54
48 55
48 60
49 53
49 54
49 56
49 57
49 60
49 50
50 51
50 52
50 54
50 53
50 55
50 60
51 52
51 53
51 55
51 58
51 56
51 57
52 55
52 58
52 59
53 54
53 56
53 57
53 60
54 56
54 58
54 57
54 55
54 60
55 56
55 57
55 58
55 59
55 60
56 57
56 58
57 58
57 59
57 60
58 59
